N = 5;

puzzle = array2d(1..N*N, 1..4,[
  2,8,9,8,
  8,0,3,7,
  9,9,2,1,
  0,7,8,6,
  3,7,4,5,
  6,2,0,2,
  2,6,9,3,
  4,8,5,4,
  3,2,6,1,
  4,4,5,7,
  2,3,4,7,
  2,2,5,3,
  4,0,1,8,
  6,9,3,2,
  8,2,1,8,
  3,6,4,3,
  4,3,8,3,
  9,2,7,8,
  7,2,3,9,
  5,4,2,5,
  8,2,1,4,
  2,4,6,0,
  2,1,3,1,
  7,3,7,9,
  8,8,1,4]);